\Problem : vne
Minimize
obj :  + 0.11863217988117783 Xm45w0 + 0.045959186841829834 Xm51w0 + 0.11997965096855526 Xm45w1 + 0.04648120941218782 Xm51w1 + 0.1135953511883728 Xm45w2 + 0.04400787353700163 Xm51w2 + 0.15276239040553866 Xm45w3 + 0.05918154121491137 Xm51w3 + 0.15042474477002496 Xm45w4 + 0.058275916007314486 Xm51w4 + 0.023662381058270655 Xm42w5 + 0.05640938381872269 Xm51w5 + 0.01884436733312147 Xm42w6 + 0.04492359188609639 Xm51w6 + 0.0491648124608218 Xm51w7 + 0.08490460783219904 vs37vd39ss0sd1 + 0.08490460783219904 vs37vd39ss1sd0 + 0.09617693522906792 vs37vd39ss0sd2 + 0.09617693522906792 vs37vd39ss2sd0 + 0.07640288285704042 vs37vd39ss0sd3 + 0.07640288285704042 vs37vd39ss3sd0 + 0.08827794211472652 vs37vd39ss0sd7 + 0.08827794211472652 vs37vd39ss7sd0 + 0.0833613708383866 vs37vd39ss1sd2 + 0.0833613708383866 vs37vd39ss2sd1 + 0.07856874211842095 vs37vd39ss1sd5 + 0.07856874211842095 vs37vd39ss5sd1 + 0.0767877992879074 vs37vd39ss1sd6 + 0.0767877992879074 vs37vd39ss6sd1 + 0.0920360403942674 vs37vd39ss1sd8 + 0.0920360403942674 vs37vd39ss8sd1 + 0.07358192152827178 vs37vd39ss2sd3 + 0.07358192152827178 vs37vd39ss3sd2 + 0.07959656331714607 vs37vd39ss2sd4 + 0.07959656331714607 vs37vd39ss4sd2 + 0.09084940010744344 vs37vd39ss2sd6 + 0.09084940010744344 vs37vd39ss6sd2 + 0.10409684700088913 vs37vd39ss3sd4 + 0.10409684700088913 vs37vd39ss4sd3 + 0.08348221281930732 vs37vd39ss3sd7 + 0.08348221281930732 vs37vd39ss7sd3 + 0.0947999715261959 vs37vd39ss3sd8 + 0.0947999715261959 vs37vd39ss8sd3 + 0.0763486785530012 vs37vd39ss4sd5 + 0.0763486785530012 vs37vd39ss5sd4 + 0.0787872065076724 vs37vd39ss4sd7 + 0.0787872065076724 vs37vd39ss7sd4 + 0.10181380325299592 vs37vd39ss4sd9 + 0.10181380325299592 vs37vd39ss9sd4 + 0.0815404985496598 vs37vd39ss5sd6 + 0.0815404985496598 vs37vd39ss6sd5 + 0.07637549732965339 vs37vd39ss5sd9 + 0.07637549732965339 vs37vd39ss9sd5 + 0.09103337491669088 vs37vd39ss5sd10 + 0.09103337491669088 vs37vd39ss10sd5 + 0.08833649788154917 vs37vd39ss6sd10 + 0.08833649788154917 vs37vd39ss10sd6 + 0.10328447339847992 vs37vd39ss7sd8 + 0.10328447339847992 vs37vd39ss8sd7 + 0.1009666413949962 vs37vd39ss7sd9 + 0.1009666413949962 vs37vd39ss9sd7 + 0.10524444093212552 vs37vd39ss8sd9 + 0.10524444093212552 vs37vd39ss9sd8 + 0.09599754915211475 vs37vd39ss8sd10 + 0.09599754915211475 vs37vd39ss10sd8 + 0.07413695922954344 vs37vd39ss9sd10 + 0.07413695922954344 vs37vd39ss10sd9 + 0.010653989346010655 vs37vd39ss42sd5 + 0.010653989346010655 vs37vd39ss5sd42 + 0.010653989346010655 vs37vd39ss42sd6 + 0.010653989346010655 vs37vd39ss6sd42 + 0.010653989346010655 vs37vd39ss45sd0 + 0.010653989346010655 vs37vd39ss0sd45 + 0.010653989346010655 vs37vd39ss45sd1 + 0.010653989346010655 vs37vd39ss1sd45 + 0.010653989346010655 vs37vd39ss45sd2 + 0.010653989346010655 vs37vd39ss2sd45 + 0.010653989346010655 vs37vd39ss45sd3 + 0.010653989346010655 vs37vd39ss3sd45 + 0.010653989346010655 vs37vd39ss45sd4 + 0.010653989346010655 vs37vd39ss4sd45 + 0.010653989346010655 vs37vd39ss51sd0 + 0.010653989346010655 vs37vd39ss0sd51 + 0.010653989346010655 vs37vd39ss51sd1 + 0.010653989346010655 vs37vd39ss1sd51 + 0.010653989346010655 vs37vd39ss51sd2 + 0.010653989346010655 vs37vd39ss2sd51 + 0.010653989346010655 vs37vd39ss51sd3 + 0.010653989346010655 vs37vd39ss3sd51 + 0.010653989346010655 vs37vd39ss51sd4 + 0.010653989346010655 vs37vd39ss4sd51 + 0.010653989346010655 vs37vd39ss51sd5 + 0.010653989346010655 vs37vd39ss5sd51 + 0.010653989346010655 vs37vd39ss51sd6 + 0.010653989346010655 vs37vd39ss6sd51 + 0.010653989346010655 vs37vd39ss51sd7 + 0.010653989346010655 vs37vd39ss7sd51 + 0.07705487639661465 vs37vd38ss0sd1 + 0.07705487639661465 vs37vd38ss1sd0 + 0.08728503723764387 vs37vd38ss0sd2 + 0.08728503723764387 vs37vd38ss2sd0 + 0.06933916597941842 vs37vd38ss0sd3 + 0.06933916597941842 vs37vd38ss3sd0 + 0.08011633398791916 vs37vd38ss0sd7 + 0.08011633398791916 vs37vd38ss7sd0 + 0.07565431712374321 vs37vd38ss1sd2 + 0.07565431712374321 vs37vd38ss2sd1 + 0.07130478388802443 vs37vd38ss1sd5 + 0.07130478388802443 vs37vd38ss5sd1 + 0.06968849552419529 vs37vd38ss1sd6 + 0.06968849552419529 vs37vd38ss6sd1 + 0.08352698278319613 vs37vd38ss1sd8 + 0.08352698278319613 vs37vd38ss8sd1 + 0.06677901250768349 vs37vd38ss2sd3 + 0.06677901250768349 vs37vd38ss3sd2 + 0.07223757937990288 vs37vd38ss2sd4 + 0.07223757937990288 vs37vd38ss4sd2 + 0.08245005158990715 vs37vd38ss2sd6 + 0.08245005158990715 vs37vd38ss6sd2 + 0.09447272514094208 vs37vd38ss3sd4 + 0.09447272514094208 vs37vd38ss4sd3 + 0.07576398683591913 vs37vd38ss3sd7 + 0.07576398683591913 vs37vd38ss7sd3 + 0.08603537870159454 vs37vd38ss3sd8 + 0.08603537870159454 vs37vd38ss8sd3 + 0.06928997305509373 vs37vd38ss4sd5 + 0.06928997305509373 vs37vd38ss5sd4 + 0.0715030504714365 vs37vd38ss4sd7 + 0.0715030504714365 vs37vd38ss7sd4 + 0.09240075686626784 vs37vd38ss4sd9 + 0.09240075686626784 vs37vd38ss9sd4 + 0.07400179092140612 vs37vd38ss5sd6 + 0.07400179092140612 vs37vd38ss6sd5 + 0.06931431234094412 vs37vd38ss5sd9 + 0.06931431234094412 vs37vd38ss9sd5 + 0.08261701727703061 vs37vd38ss5sd10 + 0.08261701727703061 vs37vd38ss10sd5 + 0.08016947606689497 vs37vd38ss6sd10 + 0.08016947606689497 vs37vd38ss10sd6 + 0.0937354583527222 vs37vd38ss7sd8 + 0.0937354583527222 vs37vd38ss8sd7 + 0.09163191811978771 vs37vd38ss7sd9 + 0.09163191811978771 vs37vd38ss9sd7 + 0.09551421995238613 vs37vd38ss8sd9 + 0.09551421995238613 vs37vd38ss9sd8 + 0.08712223603827648 vs37vd38ss8sd10 + 0.08712223603827648 vs37vd38ss10sd8 + 0.06728273500942891 vs37vd38ss9sd10 + 0.06728273500942891 vs37vd38ss10sd9 + 0.00966899033100967 vs37vd38ss42sd5 + 0.00966899033100967 vs37vd38ss5sd42 + 0.00966899033100967 vs37vd38ss42sd6 + 0.00966899033100967 vs37vd38ss6sd42 + 0.00966899033100967 vs37vd38ss45sd0 + 0.00966899033100967 vs37vd38ss0sd45 + 0.00966899033100967 vs37vd38ss45sd1 + 0.00966899033100967 vs37vd38ss1sd45 + 0.00966899033100967 vs37vd38ss45sd2 + 0.00966899033100967 vs37vd38ss2sd45 + 0.00966899033100967 vs37vd38ss45sd3 + 0.00966899033100967 vs37vd38ss3sd45 + 0.00966899033100967 vs37vd38ss45sd4 + 0.00966899033100967 vs37vd38ss4sd45 + 0.00966899033100967 vs37vd38ss51sd0 + 0.00966899033100967 vs37vd38ss0sd51 + 0.00966899033100967 vs37vd38ss51sd1 + 0.00966899033100967 vs37vd38ss1sd51 + 0.00966899033100967 vs37vd38ss51sd2 + 0.00966899033100967 vs37vd38ss2sd51 + 0.00966899033100967 vs37vd38ss51sd3 + 0.00966899033100967 vs37vd38ss3sd51 + 0.00966899033100967 vs37vd38ss51sd4 + 0.00966899033100967 vs37vd38ss4sd51 + 0.00966899033100967 vs37vd38ss51sd5 + 0.00966899033100967 vs37vd38ss5sd51 + 0.00966899033100967 vs37vd38ss51sd6 + 0.00966899033100967 vs37vd38ss6sd51 + 0.00966899033100967 vs37vd38ss51sd7 + 0.00966899033100967 vs37vd38ss7sd51
Subject To
 + 15.865749105128842 Xm45w0 + 6.146535689039481 Xm51w0<=133.738
 + 15.865749105128842 Xm45w1 + 6.146535689039481 Xm51w1<=132.236
 + 15.865749105128842 Xm45w2 + 6.146535689039481 Xm51w2<=139.668
 + 15.865749105128842 Xm45w3 + 6.146535689039481 Xm51w3<=103.858
 + 15.865749105128842 Xm45w4 + 6.146535689039481 Xm51w4<=105.472
 + 2.5783240272523456 Xm42w5 + 6.146535689039481 Xm51w5<=108.962
 + 2.5783240272523456 Xm42w6 + 6.146535689039481 Xm51w6<=136.821
 + 6.146535689039481 Xm51w7<=125.018
<=141.684
<=110.029
<=130.703
+Xm45w0+Xm51w0<=1
+Xm45w1+Xm51w1<=1
+Xm45w2+Xm51w2<=1
+Xm45w3+Xm51w3<=1
+Xm45w4+Xm51w4<=1
+Xm42w5+Xm51w5<=1
+Xm42w6+Xm51w6<=1
+Xm51w7<=1
<=1
<=1
<=1
 +Xm42w5 +Xm42w6=1
 +Xm45w0 +Xm45w1 +Xm45w2 +Xm45w3 +Xm45w4=1
 +Xm51w0 +Xm51w1 +Xm51w2 +Xm51w3 +Xm51w4 +Xm51w5 +Xm51w6 +Xm51w7=1
 + vs37vd39ss0sd1 - vs37vd39ss1sd0 + vs37vd39ss0sd2 - vs37vd39ss2sd0 + vs37vd39ss0sd3 - vs37vd39ss3sd0 + vs37vd39ss0sd7 - vs37vd39ss7sd0 + vs37vd39ss0sd45 - vs37vd39ss45sd0 + vs37vd39ss0sd51 - vs37vd39ss51sd0 = 0
 + vs37vd39ss1sd0 - vs37vd39ss0sd1 + vs37vd39ss1sd2 - vs37vd39ss2sd1 + vs37vd39ss1sd5 - vs37vd39ss5sd1 + vs37vd39ss1sd6 - vs37vd39ss6sd1 + vs37vd39ss1sd8 - vs37vd39ss8sd1 + vs37vd39ss1sd45 - vs37vd39ss45sd1 + vs37vd39ss1sd51 - vs37vd39ss51sd1 = 0
 + vs37vd39ss2sd0 - vs37vd39ss0sd2 + vs37vd39ss2sd1 - vs37vd39ss1sd2 + vs37vd39ss2sd3 - vs37vd39ss3sd2 + vs37vd39ss2sd4 - vs37vd39ss4sd2 + vs37vd39ss2sd6 - vs37vd39ss6sd2 + vs37vd39ss2sd45 - vs37vd39ss45sd2 + vs37vd39ss2sd51 - vs37vd39ss51sd2 = 0
 + vs37vd39ss3sd0 - vs37vd39ss0sd3 + vs37vd39ss3sd2 - vs37vd39ss2sd3 + vs37vd39ss3sd4 - vs37vd39ss4sd3 + vs37vd39ss3sd7 - vs37vd39ss7sd3 + vs37vd39ss3sd8 - vs37vd39ss8sd3 + vs37vd39ss3sd45 - vs37vd39ss45sd3 + vs37vd39ss3sd51 - vs37vd39ss51sd3 = 0
 + vs37vd39ss7sd0 - vs37vd39ss0sd7 + vs37vd39ss7sd3 - vs37vd39ss3sd7 + vs37vd39ss7sd4 - vs37vd39ss4sd7 + vs37vd39ss7sd8 - vs37vd39ss8sd7 + vs37vd39ss7sd9 - vs37vd39ss9sd7 + vs37vd39ss7sd51 - vs37vd39ss51sd7 = 0
 + vs37vd39ss5sd1 - vs37vd39ss1sd5 + vs37vd39ss5sd4 - vs37vd39ss4sd5 + vs37vd39ss5sd6 - vs37vd39ss6sd5 + vs37vd39ss5sd9 - vs37vd39ss9sd5 + vs37vd39ss5sd10 - vs37vd39ss10sd5 + vs37vd39ss5sd42 - vs37vd39ss42sd5 + vs37vd39ss5sd51 - vs37vd39ss51sd5 = 0
 + vs37vd39ss6sd1 - vs37vd39ss1sd6 + vs37vd39ss6sd2 - vs37vd39ss2sd6 + vs37vd39ss6sd5 - vs37vd39ss5sd6 + vs37vd39ss6sd10 - vs37vd39ss10sd6 + vs37vd39ss6sd42 - vs37vd39ss42sd6 + vs37vd39ss6sd51 - vs37vd39ss51sd6 = 0
 + vs37vd39ss8sd1 - vs37vd39ss1sd8 + vs37vd39ss8sd3 - vs37vd39ss3sd8 + vs37vd39ss8sd7 - vs37vd39ss7sd8 + vs37vd39ss8sd9 - vs37vd39ss9sd8 + vs37vd39ss8sd10 - vs37vd39ss10sd8 = 0
 + vs37vd39ss4sd2 - vs37vd39ss2sd4 + vs37vd39ss4sd3 - vs37vd39ss3sd4 + vs37vd39ss4sd5 - vs37vd39ss5sd4 + vs37vd39ss4sd7 - vs37vd39ss7sd4 + vs37vd39ss4sd9 - vs37vd39ss9sd4 + vs37vd39ss4sd45 - vs37vd39ss45sd4 + vs37vd39ss4sd51 - vs37vd39ss51sd4 = 0
 + vs37vd39ss9sd4 - vs37vd39ss4sd9 + vs37vd39ss9sd5 - vs37vd39ss5sd9 + vs37vd39ss9sd7 - vs37vd39ss7sd9 + vs37vd39ss9sd8 - vs37vd39ss8sd9 + vs37vd39ss9sd10 - vs37vd39ss10sd9 = 0
 + vs37vd39ss10sd5 - vs37vd39ss5sd10 + vs37vd39ss10sd6 - vs37vd39ss6sd10 + vs37vd39ss10sd8 - vs37vd39ss8sd10 + vs37vd39ss10sd9 - vs37vd39ss9sd10 = 0
 + vs37vd39ss42sd5 - vs37vd39ss5sd42 + vs37vd39ss42sd6 - vs37vd39ss6sd42 = 1
 + vs37vd39ss45sd0 - vs37vd39ss0sd45 + vs37vd39ss45sd1 - vs37vd39ss1sd45 + vs37vd39ss45sd2 - vs37vd39ss2sd45 + vs37vd39ss45sd3 - vs37vd39ss3sd45 + vs37vd39ss45sd4 - vs37vd39ss4sd45 = 0
 + vs37vd39ss51sd0 - vs37vd39ss0sd51 + vs37vd39ss51sd1 - vs37vd39ss1sd51 + vs37vd39ss51sd2 - vs37vd39ss2sd51 + vs37vd39ss51sd3 - vs37vd39ss3sd51 + vs37vd39ss51sd4 - vs37vd39ss4sd51 + vs37vd39ss51sd5 - vs37vd39ss5sd51 + vs37vd39ss51sd6 - vs37vd39ss6sd51 + vs37vd39ss51sd7 - vs37vd39ss7sd51 = -1
 + vs37vd38ss0sd1 - vs37vd38ss1sd0 + vs37vd38ss0sd2 - vs37vd38ss2sd0 + vs37vd38ss0sd3 - vs37vd38ss3sd0 + vs37vd38ss0sd7 - vs37vd38ss7sd0 + vs37vd38ss0sd45 - vs37vd38ss45sd0 + vs37vd38ss0sd51 - vs37vd38ss51sd0 = 0
 + vs37vd38ss1sd0 - vs37vd38ss0sd1 + vs37vd38ss1sd2 - vs37vd38ss2sd1 + vs37vd38ss1sd5 - vs37vd38ss5sd1 + vs37vd38ss1sd6 - vs37vd38ss6sd1 + vs37vd38ss1sd8 - vs37vd38ss8sd1 + vs37vd38ss1sd45 - vs37vd38ss45sd1 + vs37vd38ss1sd51 - vs37vd38ss51sd1 = 0
 + vs37vd38ss2sd0 - vs37vd38ss0sd2 + vs37vd38ss2sd1 - vs37vd38ss1sd2 + vs37vd38ss2sd3 - vs37vd38ss3sd2 + vs37vd38ss2sd4 - vs37vd38ss4sd2 + vs37vd38ss2sd6 - vs37vd38ss6sd2 + vs37vd38ss2sd45 - vs37vd38ss45sd2 + vs37vd38ss2sd51 - vs37vd38ss51sd2 = 0
 + vs37vd38ss3sd0 - vs37vd38ss0sd3 + vs37vd38ss3sd2 - vs37vd38ss2sd3 + vs37vd38ss3sd4 - vs37vd38ss4sd3 + vs37vd38ss3sd7 - vs37vd38ss7sd3 + vs37vd38ss3sd8 - vs37vd38ss8sd3 + vs37vd38ss3sd45 - vs37vd38ss45sd3 + vs37vd38ss3sd51 - vs37vd38ss51sd3 = 0
 + vs37vd38ss7sd0 - vs37vd38ss0sd7 + vs37vd38ss7sd3 - vs37vd38ss3sd7 + vs37vd38ss7sd4 - vs37vd38ss4sd7 + vs37vd38ss7sd8 - vs37vd38ss8sd7 + vs37vd38ss7sd9 - vs37vd38ss9sd7 + vs37vd38ss7sd51 - vs37vd38ss51sd7 = 0
 + vs37vd38ss5sd1 - vs37vd38ss1sd5 + vs37vd38ss5sd4 - vs37vd38ss4sd5 + vs37vd38ss5sd6 - vs37vd38ss6sd5 + vs37vd38ss5sd9 - vs37vd38ss9sd5 + vs37vd38ss5sd10 - vs37vd38ss10sd5 + vs37vd38ss5sd42 - vs37vd38ss42sd5 + vs37vd38ss5sd51 - vs37vd38ss51sd5 = 0
 + vs37vd38ss6sd1 - vs37vd38ss1sd6 + vs37vd38ss6sd2 - vs37vd38ss2sd6 + vs37vd38ss6sd5 - vs37vd38ss5sd6 + vs37vd38ss6sd10 - vs37vd38ss10sd6 + vs37vd38ss6sd42 - vs37vd38ss42sd6 + vs37vd38ss6sd51 - vs37vd38ss51sd6 = 0
 + vs37vd38ss8sd1 - vs37vd38ss1sd8 + vs37vd38ss8sd3 - vs37vd38ss3sd8 + vs37vd38ss8sd7 - vs37vd38ss7sd8 + vs37vd38ss8sd9 - vs37vd38ss9sd8 + vs37vd38ss8sd10 - vs37vd38ss10sd8 = 0
 + vs37vd38ss4sd2 - vs37vd38ss2sd4 + vs37vd38ss4sd3 - vs37vd38ss3sd4 + vs37vd38ss4sd5 - vs37vd38ss5sd4 + vs37vd38ss4sd7 - vs37vd38ss7sd4 + vs37vd38ss4sd9 - vs37vd38ss9sd4 + vs37vd38ss4sd45 - vs37vd38ss45sd4 + vs37vd38ss4sd51 - vs37vd38ss51sd4 = 0
 + vs37vd38ss9sd4 - vs37vd38ss4sd9 + vs37vd38ss9sd5 - vs37vd38ss5sd9 + vs37vd38ss9sd7 - vs37vd38ss7sd9 + vs37vd38ss9sd8 - vs37vd38ss8sd9 + vs37vd38ss9sd10 - vs37vd38ss10sd9 = 0
 + vs37vd38ss10sd5 - vs37vd38ss5sd10 + vs37vd38ss10sd6 - vs37vd38ss6sd10 + vs37vd38ss10sd8 - vs37vd38ss8sd10 + vs37vd38ss10sd9 - vs37vd38ss9sd10 = 0
 + vs37vd38ss42sd5 - vs37vd38ss5sd42 + vs37vd38ss42sd6 - vs37vd38ss6sd42 = 1
 + vs37vd38ss45sd0 - vs37vd38ss0sd45 + vs37vd38ss45sd1 - vs37vd38ss1sd45 + vs37vd38ss45sd2 - vs37vd38ss2sd45 + vs37vd38ss45sd3 - vs37vd38ss3sd45 + vs37vd38ss45sd4 - vs37vd38ss4sd45 = -1
 + vs37vd38ss51sd0 - vs37vd38ss0sd51 + vs37vd38ss51sd1 - vs37vd38ss1sd51 + vs37vd38ss51sd2 - vs37vd38ss2sd51 + vs37vd38ss51sd3 - vs37vd38ss3sd51 + vs37vd38ss51sd4 - vs37vd38ss4sd51 + vs37vd38ss51sd5 - vs37vd38ss5sd51 + vs37vd38ss51sd6 - vs37vd38ss6sd51 + vs37vd38ss51sd7 - vs37vd38ss7sd51 = 0
 + 10.654 vs37vd39ss0sd1 + 10.654 vs37vd39ss1sd0 + 9.669 vs37vd38ss0sd1 + 9.669 vs37vd38ss1sd0 <= 125.481
 + 10.654 vs37vd39ss0sd2 + 10.654 vs37vd39ss2sd0 + 9.669 vs37vd38ss0sd2 + 9.669 vs37vd38ss2sd0 <= 110.774
 + 10.654 vs37vd39ss0sd3 + 10.654 vs37vd39ss3sd0 + 9.669 vs37vd38ss0sd3 + 9.669 vs37vd38ss3sd0 <= 139.444
 + 10.654 vs37vd39ss0sd7 + 10.654 vs37vd39ss7sd0 + 9.669 vs37vd38ss0sd7 + 9.669 vs37vd38ss7sd0 <= 120.686
 + 10.654 vs37vd39ss1sd2 + 10.654 vs37vd39ss2sd1 + 9.669 vs37vd38ss1sd2 + 9.669 vs37vd38ss2sd1 <= 127.804
 + 10.654 vs37vd39ss1sd5 + 10.654 vs37vd39ss5sd1 + 9.669 vs37vd38ss1sd5 + 9.669 vs37vd38ss5sd1 <= 135.6
 + 10.654 vs37vd39ss1sd6 + 10.654 vs37vd39ss6sd1 + 9.669 vs37vd38ss1sd6 + 9.669 vs37vd38ss6sd1 <= 138.745
 + 10.654 vs37vd39ss1sd8 + 10.654 vs37vd39ss8sd1 + 9.669 vs37vd38ss1sd8 + 9.669 vs37vd38ss8sd1 <= 115.758
 + 10.654 vs37vd39ss2sd3 + 10.654 vs37vd39ss3sd2 + 9.669 vs37vd38ss2sd3 + 9.669 vs37vd38ss3sd2 <= 144.79
 + 10.654 vs37vd39ss2sd4 + 10.654 vs37vd39ss4sd2 + 9.669 vs37vd38ss2sd4 + 9.669 vs37vd38ss4sd2 <= 133.849
 + 10.654 vs37vd39ss2sd6 + 10.654 vs37vd39ss6sd2 + 9.669 vs37vd38ss2sd6 + 9.669 vs37vd38ss6sd2 <= 117.27
 + 10.654 vs37vd39ss3sd4 + 10.654 vs37vd39ss4sd3 + 9.669 vs37vd38ss3sd4 + 9.669 vs37vd38ss4sd3 <= 102.346
 + 10.654 vs37vd39ss3sd7 + 10.654 vs37vd39ss7sd3 + 9.669 vs37vd38ss3sd7 + 9.669 vs37vd38ss7sd3 <= 127.619
 + 10.654 vs37vd39ss3sd8 + 10.654 vs37vd39ss8sd3 + 9.669 vs37vd38ss3sd8 + 9.669 vs37vd38ss8sd3 <= 112.383
 + 10.654 vs37vd39ss4sd5 + 10.654 vs37vd39ss5sd4 + 9.669 vs37vd38ss4sd5 + 9.669 vs37vd38ss5sd4 <= 139.543
 + 10.654 vs37vd39ss4sd7 + 10.654 vs37vd39ss7sd4 + 9.669 vs37vd38ss4sd7 + 9.669 vs37vd38ss7sd4 <= 135.224
 + 10.654 vs37vd39ss4sd9 + 10.654 vs37vd39ss9sd4 + 9.669 vs37vd38ss4sd9 + 9.669 vs37vd38ss9sd4 <= 104.641
 + 10.654 vs37vd39ss5sd6 + 10.654 vs37vd39ss6sd5 + 9.669 vs37vd38ss5sd6 + 9.669 vs37vd38ss6sd5 <= 130.658
 + 10.654 vs37vd39ss5sd9 + 10.654 vs37vd39ss9sd5 + 9.669 vs37vd38ss5sd9 + 9.669 vs37vd38ss9sd5 <= 139.494
 + 10.654 vs37vd39ss5sd10 + 10.654 vs37vd39ss10sd5 + 9.669 vs37vd38ss5sd10 + 9.669 vs37vd38ss10sd5 <= 117.033
 + 10.654 vs37vd39ss6sd10 + 10.654 vs37vd39ss10sd6 + 9.669 vs37vd38ss6sd10 + 9.669 vs37vd38ss10sd6 <= 120.606
 + 10.654 vs37vd39ss7sd8 + 10.654 vs37vd39ss8sd7 + 9.669 vs37vd38ss7sd8 + 9.669 vs37vd38ss8sd7 <= 103.151
 + 10.654 vs37vd39ss7sd9 + 10.654 vs37vd39ss9sd7 + 9.669 vs37vd38ss7sd9 + 9.669 vs37vd38ss9sd7 <= 105.519
 + 10.654 vs37vd39ss8sd9 + 10.654 vs37vd39ss9sd8 + 9.669 vs37vd38ss8sd9 + 9.669 vs37vd38ss9sd8 <= 101.23
 + 10.654 vs37vd39ss8sd10 + 10.654 vs37vd39ss10sd8 + 9.669 vs37vd38ss8sd10 + 9.669 vs37vd38ss10sd8 <= 110.981
 + 10.654 vs37vd39ss9sd10 + 10.654 vs37vd39ss10sd9 + 9.669 vs37vd38ss9sd10 + 9.669 vs37vd38ss10sd9 <= 143.706
 + 10.654 vs37vd39ss42sd5 + 10.654 vs37vd39ss5sd42 + 9.669 vs37vd38ss42sd5 + 9.669 vs37vd38ss5sd42 <= 1000.0
 + 10.654 vs37vd39ss42sd6 + 10.654 vs37vd39ss6sd42 + 9.669 vs37vd38ss42sd6 + 9.669 vs37vd38ss6sd42 <= 1000.0
 + 10.654 vs37vd39ss45sd0 + 10.654 vs37vd39ss0sd45 + 9.669 vs37vd38ss45sd0 + 9.669 vs37vd38ss0sd45 <= 1000.0
 + 10.654 vs37vd39ss45sd1 + 10.654 vs37vd39ss1sd45 + 9.669 vs37vd38ss45sd1 + 9.669 vs37vd38ss1sd45 <= 1000.0
 + 10.654 vs37vd39ss45sd2 + 10.654 vs37vd39ss2sd45 + 9.669 vs37vd38ss45sd2 + 9.669 vs37vd38ss2sd45 <= 1000.0
 + 10.654 vs37vd39ss45sd3 + 10.654 vs37vd39ss3sd45 + 9.669 vs37vd38ss45sd3 + 9.669 vs37vd38ss3sd45 <= 1000.0
 + 10.654 vs37vd39ss45sd4 + 10.654 vs37vd39ss4sd45 + 9.669 vs37vd38ss45sd4 + 9.669 vs37vd38ss4sd45 <= 1000.0
 + 10.654 vs37vd39ss51sd0 + 10.654 vs37vd39ss0sd51 + 9.669 vs37vd38ss51sd0 + 9.669 vs37vd38ss0sd51 <= 1000.0
 + 10.654 vs37vd39ss51sd1 + 10.654 vs37vd39ss1sd51 + 9.669 vs37vd38ss51sd1 + 9.669 vs37vd38ss1sd51 <= 1000.0
 + 10.654 vs37vd39ss51sd2 + 10.654 vs37vd39ss2sd51 + 9.669 vs37vd38ss51sd2 + 9.669 vs37vd38ss2sd51 <= 1000.0
 + 10.654 vs37vd39ss51sd3 + 10.654 vs37vd39ss3sd51 + 9.669 vs37vd38ss51sd3 + 9.669 vs37vd38ss3sd51 <= 1000.0
 + 10.654 vs37vd39ss51sd4 + 10.654 vs37vd39ss4sd51 + 9.669 vs37vd38ss51sd4 + 9.669 vs37vd38ss4sd51 <= 1000.0
 + 10.654 vs37vd39ss51sd5 + 10.654 vs37vd39ss5sd51 + 9.669 vs37vd38ss51sd5 + 9.669 vs37vd38ss5sd51 <= 1000.0
 + 10.654 vs37vd39ss51sd6 + 10.654 vs37vd39ss6sd51 + 9.669 vs37vd38ss51sd6 + 9.669 vs37vd38ss6sd51 <= 1000.0
 + 10.654 vs37vd39ss51sd7 + 10.654 vs37vd39ss7sd51 + 9.669 vs37vd38ss51sd7 + 9.669 vs37vd38ss7sd51 <= 1000.0
Bounds
0<=Xm45w0<=1
0<=Xm51w0<=1
0<=Xm45w1<=1
0<=Xm51w1<=1
0<=Xm45w2<=1
0<=Xm51w2<=1
0<=Xm45w3<=1
0<=Xm51w3<=1
0<=Xm45w4<=1
0<=Xm51w4<=1
0<=Xm42w5<=1
0<=Xm51w5<=1
0<=Xm42w6<=1
0<=Xm51w6<=1
0<=Xm51w7<=1
0 <= vs37vd39ss0sd1 <= 1
0 <= vs37vd39ss1sd0 <= 1
0 <= vs37vd39ss0sd2 <= 1
0 <= vs37vd39ss2sd0 <= 1
0 <= vs37vd39ss0sd3 <= 1
0 <= vs37vd39ss3sd0 <= 1
0 <= vs37vd39ss0sd7 <= 1
0 <= vs37vd39ss7sd0 <= 1
0 <= vs37vd39ss1sd2 <= 1
0 <= vs37vd39ss2sd1 <= 1
0 <= vs37vd39ss1sd5 <= 1
0 <= vs37vd39ss5sd1 <= 1
0 <= vs37vd39ss1sd6 <= 1
0 <= vs37vd39ss6sd1 <= 1
0 <= vs37vd39ss1sd8 <= 1
0 <= vs37vd39ss8sd1 <= 1
0 <= vs37vd39ss2sd3 <= 1
0 <= vs37vd39ss3sd2 <= 1
0 <= vs37vd39ss2sd4 <= 1
0 <= vs37vd39ss4sd2 <= 1
0 <= vs37vd39ss2sd6 <= 1
0 <= vs37vd39ss6sd2 <= 1
0 <= vs37vd39ss3sd4 <= 1
0 <= vs37vd39ss4sd3 <= 1
0 <= vs37vd39ss3sd7 <= 1
0 <= vs37vd39ss7sd3 <= 1
0 <= vs37vd39ss3sd8 <= 1
0 <= vs37vd39ss8sd3 <= 1
0 <= vs37vd39ss4sd5 <= 1
0 <= vs37vd39ss5sd4 <= 1
0 <= vs37vd39ss4sd7 <= 1
0 <= vs37vd39ss7sd4 <= 1
0 <= vs37vd39ss4sd9 <= 1
0 <= vs37vd39ss9sd4 <= 1
0 <= vs37vd39ss5sd6 <= 1
0 <= vs37vd39ss6sd5 <= 1
0 <= vs37vd39ss5sd9 <= 1
0 <= vs37vd39ss9sd5 <= 1
0 <= vs37vd39ss5sd10 <= 1
0 <= vs37vd39ss10sd5 <= 1
0 <= vs37vd39ss6sd10 <= 1
0 <= vs37vd39ss10sd6 <= 1
0 <= vs37vd39ss7sd8 <= 1
0 <= vs37vd39ss8sd7 <= 1
0 <= vs37vd39ss7sd9 <= 1
0 <= vs37vd39ss9sd7 <= 1
0 <= vs37vd39ss8sd9 <= 1
0 <= vs37vd39ss9sd8 <= 1
0 <= vs37vd39ss8sd10 <= 1
0 <= vs37vd39ss10sd8 <= 1
0 <= vs37vd39ss9sd10 <= 1
0 <= vs37vd39ss10sd9 <= 1
0 <= vs37vd39ss42sd5 <= 1
0 <= vs37vd39ss5sd42 <= 1
0 <= vs37vd39ss42sd6 <= 1
0 <= vs37vd39ss6sd42 <= 1
0 <= vs37vd39ss45sd0 <= 1
0 <= vs37vd39ss0sd45 <= 1
0 <= vs37vd39ss45sd1 <= 1
0 <= vs37vd39ss1sd45 <= 1
0 <= vs37vd39ss45sd2 <= 1
0 <= vs37vd39ss2sd45 <= 1
0 <= vs37vd39ss45sd3 <= 1
0 <= vs37vd39ss3sd45 <= 1
0 <= vs37vd39ss45sd4 <= 1
0 <= vs37vd39ss4sd45 <= 1
0 <= vs37vd39ss51sd0 <= 1
0 <= vs37vd39ss0sd51 <= 1
0 <= vs37vd39ss51sd1 <= 1
0 <= vs37vd39ss1sd51 <= 1
0 <= vs37vd39ss51sd2 <= 1
0 <= vs37vd39ss2sd51 <= 1
0 <= vs37vd39ss51sd3 <= 1
0 <= vs37vd39ss3sd51 <= 1
0 <= vs37vd39ss51sd4 <= 1
0 <= vs37vd39ss4sd51 <= 1
0 <= vs37vd39ss51sd5 <= 1
0 <= vs37vd39ss5sd51 <= 1
0 <= vs37vd39ss51sd6 <= 1
0 <= vs37vd39ss6sd51 <= 1
0 <= vs37vd39ss51sd7 <= 1
0 <= vs37vd39ss7sd51 <= 1
0 <= vs37vd38ss0sd1 <= 1
0 <= vs37vd38ss1sd0 <= 1
0 <= vs37vd38ss0sd2 <= 1
0 <= vs37vd38ss2sd0 <= 1
0 <= vs37vd38ss0sd3 <= 1
0 <= vs37vd38ss3sd0 <= 1
0 <= vs37vd38ss0sd7 <= 1
0 <= vs37vd38ss7sd0 <= 1
0 <= vs37vd38ss1sd2 <= 1
0 <= vs37vd38ss2sd1 <= 1
0 <= vs37vd38ss1sd5 <= 1
0 <= vs37vd38ss5sd1 <= 1
0 <= vs37vd38ss1sd6 <= 1
0 <= vs37vd38ss6sd1 <= 1
0 <= vs37vd38ss1sd8 <= 1
0 <= vs37vd38ss8sd1 <= 1
0 <= vs37vd38ss2sd3 <= 1
0 <= vs37vd38ss3sd2 <= 1
0 <= vs37vd38ss2sd4 <= 1
0 <= vs37vd38ss4sd2 <= 1
0 <= vs37vd38ss2sd6 <= 1
0 <= vs37vd38ss6sd2 <= 1
0 <= vs37vd38ss3sd4 <= 1
0 <= vs37vd38ss4sd3 <= 1
0 <= vs37vd38ss3sd7 <= 1
0 <= vs37vd38ss7sd3 <= 1
0 <= vs37vd38ss3sd8 <= 1
0 <= vs37vd38ss8sd3 <= 1
0 <= vs37vd38ss4sd5 <= 1
0 <= vs37vd38ss5sd4 <= 1
0 <= vs37vd38ss4sd7 <= 1
0 <= vs37vd38ss7sd4 <= 1
0 <= vs37vd38ss4sd9 <= 1
0 <= vs37vd38ss9sd4 <= 1
0 <= vs37vd38ss5sd6 <= 1
0 <= vs37vd38ss6sd5 <= 1
0 <= vs37vd38ss5sd9 <= 1
0 <= vs37vd38ss9sd5 <= 1
0 <= vs37vd38ss5sd10 <= 1
0 <= vs37vd38ss10sd5 <= 1
0 <= vs37vd38ss6sd10 <= 1
0 <= vs37vd38ss10sd6 <= 1
0 <= vs37vd38ss7sd8 <= 1
0 <= vs37vd38ss8sd7 <= 1
0 <= vs37vd38ss7sd9 <= 1
0 <= vs37vd38ss9sd7 <= 1
0 <= vs37vd38ss8sd9 <= 1
0 <= vs37vd38ss9sd8 <= 1
0 <= vs37vd38ss8sd10 <= 1
0 <= vs37vd38ss10sd8 <= 1
0 <= vs37vd38ss9sd10 <= 1
0 <= vs37vd38ss10sd9 <= 1
0 <= vs37vd38ss42sd5 <= 1
0 <= vs37vd38ss5sd42 <= 1
0 <= vs37vd38ss42sd6 <= 1
0 <= vs37vd38ss6sd42 <= 1
0 <= vs37vd38ss45sd0 <= 1
0 <= vs37vd38ss0sd45 <= 1
0 <= vs37vd38ss45sd1 <= 1
0 <= vs37vd38ss1sd45 <= 1
0 <= vs37vd38ss45sd2 <= 1
0 <= vs37vd38ss2sd45 <= 1
0 <= vs37vd38ss45sd3 <= 1
0 <= vs37vd38ss3sd45 <= 1
0 <= vs37vd38ss45sd4 <= 1
0 <= vs37vd38ss4sd45 <= 1
0 <= vs37vd38ss51sd0 <= 1
0 <= vs37vd38ss0sd51 <= 1
0 <= vs37vd38ss51sd1 <= 1
0 <= vs37vd38ss1sd51 <= 1
0 <= vs37vd38ss51sd2 <= 1
0 <= vs37vd38ss2sd51 <= 1
0 <= vs37vd38ss51sd3 <= 1
0 <= vs37vd38ss3sd51 <= 1
0 <= vs37vd38ss51sd4 <= 1
0 <= vs37vd38ss4sd51 <= 1
0 <= vs37vd38ss51sd5 <= 1
0 <= vs37vd38ss5sd51 <= 1
0 <= vs37vd38ss51sd6 <= 1
0 <= vs37vd38ss6sd51 <= 1
0 <= vs37vd38ss51sd7 <= 1
0 <= vs37vd38ss7sd51 <= 1
General
END